
List of user-set options:

                                    Name   Value                used
                        file_print_level = 5                     yes
                   hessian_approximation = limited-memory        yes
                                  hsllib = /home/ggs24/packages/ThirdParty-HSL/.libs/libcoinhsl.so  yes
                           linear_solver = ma97                  yes
                                max_iter = 100                   yes
                             output_file = IPOPT.out             yes
                             print_level = 0                     yes
                      print_user_options = yes                   yes
                                      sb = yes                   yes
This is Ipopt version 3.14.7, running with linear solver ma97.

Number of nonzeros in equality constraint Jacobian...:        0
Number of nonzeros in inequality constraint Jacobian.:        6
Number of nonzeros in Lagrangian Hessian.............:        0

Total number of variables............................:        6
                     variables with only lower bounds:        0
                variables with lower and upper bounds:        6
                     variables with only upper bounds:        0
Total number of equality constraints.................:        0
Total number of inequality constraints...............:        1
        inequality constraints with only lower bounds:        0
   inequality constraints with lower and upper bounds:        0
        inequality constraints with only upper bounds:        0

iter    objective    inf_pr   inf_du lg(mu)  ||d||  lg(rg) alpha_du alpha_pr  ls
   0  2.0749705e+00 0.00e+00 2.90e+00   0.0 0.00e+00    -  0.00e+00 0.00e+00   0
   1  5.7910984e-01 0.00e+00 6.09e-01  -0.0 9.67e-01    -  1.00e+00 5.00e-01f  2
   2  3.1581175e-01 0.00e+00 1.12e+00  -1.6 1.89e-01    -  9.91e-01 1.00e+00f  1
   3  2.9089439e-01 0.00e+00 3.61e-01  -1.9 5.46e-02    -  9.84e-01 1.00e+00f  1
   4  1.8072386e-01 0.00e+00 7.85e-01  -2.5 5.73e-01    -  9.99e-01 1.00e+00f  1
   5  6.5433022e-02 0.00e+00 3.94e-01  -3.5 4.03e-01    -  1.00e+00 1.00e+00f  1
   6  1.8206831e-02 0.00e+00 1.38e-01  -4.2 3.48e-01    -  1.00e+00 1.00e+00f  1
   7  7.4207142e-03 0.00e+00 8.02e-02  -5.3 5.53e-01    -  1.00e+00 5.83e-01f  1
   8  6.5445809e-03 0.00e+00 5.90e-02  -3.7 1.40e-01    -  1.00e+00 1.00e+00f  1
   9  5.9356432e-03 0.00e+00 4.89e-02  -5.4 3.32e-02    -  1.00e+00 1.00e+00f  1
iter    objective    inf_pr   inf_du lg(mu)  ||d||  lg(rg) alpha_du alpha_pr  ls
  10  5.6470178e-03 0.00e+00 6.08e-02  -6.4 1.67e-01    -  1.00e+00 5.00e-01f  2
  11  4.3671106e-03 0.00e+00 5.08e-02  -5.4 6.58e-02    -  1.00e+00 1.00e+00f  1
  12  3.6171118e-03 0.00e+00 4.98e-02  -7.0 1.42e-02    -  1.00e+00 1.00e+00f  1
  13  3.5286303e-03 0.00e+00 2.83e-02  -6.4 1.05e+00    -  1.00e+00 7.81e-03f  8
  14  3.4565254e-03 0.00e+00 1.46e-02  -8.0 1.42e-02    -  1.00e+00 1.00e+00f  1
  15  3.2848295e-03 0.00e+00 5.93e-03  -9.3 1.28e-02    -  1.00e+00 1.00e+00f  1
  16  3.2069519e-03 0.00e+00 1.32e-02 -10.5 1.17e-01    -  1.00e+00 1.25e-01f  4
  17  2.4473525e-03 0.00e+00 2.29e-02 -11.0 8.46e-02    -  1.00e+00 1.00e+00f  1
  18  2.3544224e-03 0.00e+00 2.45e-02 -11.0 3.38e-01    -  1.00e+00 3.12e-02f  6
  19  2.3536561e-03 0.00e+00 8.64e-02  -9.8 3.62e+01    -  1.00e+00 1.06e-05f 14
iter    objective    inf_pr   inf_du lg(mu)  ||d||  lg(rg) alpha_du alpha_pr  ls
  20  2.2739869e-03 0.00e+00 5.32e-02  -9.9 3.23e-01    -  1.00e+00 5.00e-01f  2
  21  1.9931194e-03 0.00e+00 1.26e-01 -10.5 4.94e-01    -  1.00e+00 6.25e-02f  5
  22  1.7558078e-03 0.00e+00 1.05e-01 -11.0 5.59e-02    -  1.00e+00 1.00e+00f  1
  23  1.7429509e-03 0.00e+00 5.98e-02 -10.7 4.54e-01    -  1.00e+00 1.25e-01f  4
  24  1.2776857e-03 0.00e+00 2.24e-02 -11.0 5.40e-02    -  1.00e+00 1.00e+00f  1
  25  1.0856910e-03 0.00e+00 4.27e-02 -11.0 1.98e+00    -  1.00e+00 6.25e-02f  5
  26  1.0792760e-03 0.00e+00 5.53e-02 -10.7 2.91e+00    -  1.00e+00 1.66e-03f  9
  27  1.0676529e-03 0.00e+00 1.52e-02 -11.0 2.16e-02    -  1.00e+00 1.25e-01f  4
  28  9.9075099e-04 0.00e+00 5.71e-02 -11.0 1.40e-02    -  1.00e+00 5.00e-01f  2
  29  9.6093510e-04 0.00e+00 5.66e-02 -11.0 4.87e-02    -  1.00e+00 1.25e-01f  4
iter    objective    inf_pr   inf_du lg(mu)  ||d||  lg(rg) alpha_du alpha_pr  ls
  30  9.5178923e-04 0.00e+00 5.64e-02 -11.0 9.72e-02    -  1.00e+00 6.25e-02f  5
  31  9.4560768e-04 0.00e+00 4.05e-02 -11.0 3.38e-02    -  1.00e+00 6.25e-02f  5
  32  9.3817591e-04 0.00e+00 1.82e-02 -11.0 8.20e-03    -  1.00e+00 1.00e+00f  1
  33  9.3076529e-04 0.00e+00 1.65e-02 -11.0 2.83e-03    -  1.00e+00 1.00e+00f  1
  34  9.2784904e-04 0.00e+00 9.88e-03 -11.0 8.23e-02    -  1.00e+00 3.12e-02f  6
  35  9.2456972e-04 0.00e+00 1.78e-02 -11.0 7.41e-02    -  1.00e+00 6.25e-02f  5
  36  9.1749286e-04 0.00e+00 1.51e-02 -11.0 3.96e-03    -  1.00e+00 1.00e+00f  1
  37  9.1744256e-04 0.00e+00 5.50e-02 -11.0 2.65e-03    -  1.00e+00 5.00e-01f  2
  38  9.1604633e-04 0.00e+00 1.00e-02 -11.0 1.15e-02    -  1.00e+00 1.25e-01f  4
  39  9.1239625e-04 0.00e+00 4.26e-02 -11.0 1.47e-03    -  1.00e+00 1.00e+00f  1
iter    objective    inf_pr   inf_du lg(mu)  ||d||  lg(rg) alpha_du alpha_pr  ls
  40  9.0685567e-04 0.00e+00 1.84e-02 -11.0 1.57e-03    -  1.00e+00 1.00e+00f  1
  41  9.0667653e-04 0.00e+00 1.84e-02 -11.0 1.80e-01    -  1.00e+00 2.44e-04f 13
  42  9.0665483e-04 0.00e+00 2.36e-02 -11.0 1.80e-01    -  1.00e+00 3.05e-05f 16
  43  9.0602101e-04 0.00e+00 4.17e-02 -11.0 1.56e-03    -  1.00e+00 1.00e+00f  1
  44  9.0427758e-04 0.00e+00 1.86e-02 -11.0 7.56e-04    -  1.00e+00 1.00e+00f  1
  45  9.0406660e-04 0.00e+00 1.85e-02 -11.0 6.95e-02    -  1.00e+00 9.77e-04f 11
  46  9.0405572e-04 0.00e+00 9.06e-03 -11.0 1.68e+00    -  1.00e+00 1.06e-05f 17
  47  9.0401481e-04 0.00e+00 8.06e-03 -11.0 2.35e-03    -  1.00e+00 6.25e-02f  5
  48  9.0398980e-04 0.00e+00 8.18e-03 -11.0 3.73e-03    -  1.00e+00 6.25e-02f  5
  49  9.0398735e-04 0.00e+00 1.60e-02 -11.0 6.48e-03    -  1.00e+00 9.77e-04f 11
iter    objective    inf_pr   inf_du lg(mu)  ||d||  lg(rg) alpha_du alpha_pr  ls
  50  9.0396234e-04 0.00e+00 5.44e-02 -11.0 8.49e-05    -  1.00e+00 5.00e-01f  2
  51  9.0396203e-04 0.00e+00 4.37e-02 -11.0 7.63e-04    -  1.00e+00 3.12e-02f  6
  52  9.0389675e-04 0.00e+00 1.81e-02 -11.0 6.21e-04    -  1.00e+00 1.00e+00f  1
  53  9.0389452e-04 0.00e+00 1.94e-02 -11.0 4.39e-02    -  1.00e+00 2.44e-04f 13
  54  9.0381293e-04 0.00e+00 1.77e-02 -11.0 2.76e-04    -  1.00e+00 1.00e+00f  1
  55  9.0377973e-04 0.00e+00 1.77e-02 -11.0 1.61e-04    -  1.00e+00 3.12e-02f  6
Warning: Cutting back alpha due to evaluation error
  56  8.4517929e-04 0.00e+00 2.49e-02 -11.0 3.28e+01    -  1.18e-02 4.71e-03f  5
Warning: Cutting back alpha due to evaluation error
  57  5.3566507e-04 0.00e+00 2.00e-02  -9.8 4.94e+01    -  1.00e+00 1.45e-03f  6
Warning: Cutting back alpha due to evaluation error
  58  5.0501307e-04 0.00e+00 3.29e-02  -8.6 7.82e+00    -  1.00e+00 2.22e-03f  8
  59  3.9272047e-04 0.00e+00 3.11e-02  -9.5 3.42e-01    -  1.00e+00 1.25e-01f  4
iter    objective    inf_pr   inf_du lg(mu)  ||d||  lg(rg) alpha_du alpha_pr  ls
  60  1.2780022e-04 0.00e+00 8.42e-03  -9.9 2.59e-01    -  1.00e+00 1.00e+00f  1
  61  7.5328529e-05 0.00e+00 5.38e-03 -11.0 7.84e-02    -  1.00e+00 1.00e+00f  1
Warning: Cutting back alpha due to evaluation error
  62  6.9885083e-05 0.00e+00 5.01e-03 -10.4 4.42e+00    -  1.00e+00 4.44e-03f  8
Warning: Cutting back alpha due to evaluation error
  63  6.8302206e-05 0.00e+00 4.90e-03  -8.4 1.09e+04    -  7.69e-05 4.47e-07f 10
Warning: Cutting back alpha due to evaluation error
  64  6.7648010e-05 0.00e+00 4.86e-03 -10.4 6.98e+00    -  1.00e+00 3.48e-04f 11
  65  6.7409548e-05 0.00e+00 4.84e-03  -8.2 1.62e+03    -  7.06e-04 7.50e-07f 12
Warning: Cutting back alpha due to evaluation error
  66  6.7333801e-05 0.00e+00 4.83e-03  -9.4 8.36e+01    -  1.00e+00 1.81e-06f 15
Warning: Cutting back alpha due to evaluation error
  67  6.7333243e-05 0.00e+00 4.83e-03  -8.1 3.86e+01    -  1.00e+00 1.23e-07f 20
  68  6.7333027e-05 0.00e+00 4.83e-03  -7.9 1.20e+01    -  4.51e-01 4.53e-08f 23
Warning: Cutting back alpha due to evaluation error
  69  6.7333008e-05 0.00e+00 4.83e-03  -7.9 6.20e+03    -  1.44e-04 1.20e-11f 26
Warning: Cutting back alpha due to evaluation error
iter    objective    inf_pr   inf_du lg(mu)  ||d||  lg(rg) alpha_du alpha_pr  ls
  70  6.7333003e-05 0.00e+00 4.83e-03  -7.9 6.02e+03    -  4.17e-04 3.09e-12f 28
Warning: Cutting back alpha due to evaluation error
  71  6.7333002e-05 0.00e+00 4.83e-03  -7.9 3.44e+03    -  6.91e-04 1.35e-12f 30
  72  4.1493254e-05 0.00e+00 2.62e-03  -7.9 4.83e-03    -  1.00e+00 1.00e+00f  1
  73  2.9648706e-05 0.00e+00 1.15e-03  -9.9 6.06e-03    -  1.00e+00 1.00e+00f  1
  74  2.9448589e-05 0.00e+00 1.14e-03 -11.0 8.00e-03    -  1.00e+00 1.56e-02f  7
  75  2.9417355e-05 0.00e+00 9.39e-03 -11.0 1.94e-02    -  1.00e+00 3.91e-03f  9
  76  2.4321293e-05 0.00e+00 1.28e-03 -11.0 4.33e-03    -  1.00e+00 1.00e+00f  1
  77  2.1617557e-05 0.00e+00 8.80e-03 -11.0 6.61e-03    -  1.00e+00 1.00e+00f  1
  78  2.1559969e-05 0.00e+00 8.80e-03 -11.0 4.23e-03    -  1.00e+00 3.12e-02f  6
  79  2.1477735e-05 0.00e+00 8.80e-03 -11.0 9.35e-02    -  1.00e+00 1.95e-03f 10
iter    objective    inf_pr   inf_du lg(mu)  ||d||  lg(rg) alpha_du alpha_pr  ls
  80  2.1463392e-05 0.00e+00 8.80e-03 -11.0 1.24e-01    -  1.00e+00 2.44e-04f 13
  81  2.1459517e-05 0.00e+00 3.92e-02 -11.0 7.35e-02    -  1.00e+00 1.22e-04f 14
  82  2.0693380e-05 0.00e+00 3.93e-02 -11.0 2.14e-02    -  1.00e+00 1.25e-01f  4
  83  2.0650310e-05 0.00e+00 3.91e-02 -11.0 6.01e-01    -  1.00e+00 3.91e-03f  9
  84  2.0644678e-05 0.00e+00 4.05e-02 -11.0 1.29e-01    -  1.00e+00 7.81e-03f  8
  85  2.0444141e-05 0.00e+00 3.91e-02 -11.0 3.25e-03    -  1.00e+00 5.00e-01f  2
  86  2.0321488e-05 0.00e+00 1.37e-03 -11.0 1.04e-03    -  1.00e+00 1.00e+00f  1
  87  2.0292509e-05 0.00e+00 1.37e-03 -11.0 2.18e-03    -  1.00e+00 6.25e-02f  5
  88  2.0291745e-05 0.00e+00 8.63e-03  -9.0 4.21e+03    -  2.87e-04 1.81e-09f 20
  89  2.0129251e-05 0.00e+00 8.64e-03 -11.0 2.93e-03    -  1.00e+00 5.00e-01f  2
iter    objective    inf_pr   inf_du lg(mu)  ||d||  lg(rg) alpha_du alpha_pr  ls
  90  2.0101816e-05 0.00e+00 1.37e-03 -10.1 2.74e+00    -  1.00e+00 8.68e-05f 14
  91  2.0080104e-05 0.00e+00 1.37e-03 -11.0 2.22e-02    -  1.00e+00 7.81e-03f  8
  92  2.0057029e-05 0.00e+00 1.37e-03 -10.7 8.08e-01    -  1.00e+00 1.22e-04f 14
  93  2.0054158e-05 0.00e+00 1.37e-03 -11.0 6.62e-01    -  1.00e+00 6.10e-05f 15
  94  2.0053878e-05 0.00e+00 4.98e-02 -11.0 7.20e-01    -  6.49e-01 7.63e-06f 18
  95  1.9974732e-05 0.00e+00 8.74e-03 -11.0 1.27e+00    -  1.00e+00 3.12e-02f  6
  96  1.9514688e-05 0.00e+00 8.79e-03 -11.0 2.40e+03    -  2.91e-04 1.60e-06f 10
  97  1.9466070e-05 0.00e+00 8.78e-03  -9.5 1.05e+02    -  1.00e+00 7.32e-05f 10
  98  1.8915050e-05 0.00e+00 9.06e-03  -9.6 1.15e-02    -  1.00e+00 2.50e-01f  3
  99  1.8601184e-05 0.00e+00 1.05e-03 -11.0 4.50e-02    -  1.00e+00 2.50e-01f  3
iter    objective    inf_pr   inf_du lg(mu)  ||d||  lg(rg) alpha_du alpha_pr  ls
 100  1.8471748e-05 0.00e+00 1.03e-03 -11.0 6.63e-02    -  1.00e+00 6.25e-02f  5

Number of Iterations....: 100

                                   (scaled)                 (unscaled)
Objective...............:   1.8471747901403572e-05    1.8471747901403572e-05
Dual infeasibility......:   1.0281763682547004e-03    1.0281763682547004e-03
Constraint violation....:   0.0000000000000000e+00    0.0000000000000000e+00
Variable bound violation:   0.0000000000000000e+00    0.0000000000000000e+00
Complementarity.........:   1.0381606923422206e-11    1.0381606923422206e-11
Overall NLP error.......:   1.0281763682547004e-03    1.0281763682547004e-03


Number of objective function evaluations             = 888
Number of objective gradient evaluations             = 101
Number of equality constraint evaluations            = 0
Number of inequality constraint evaluations          = 888
Number of equality constraint Jacobian evaluations   = 0
Number of inequality constraint Jacobian evaluations = 101
Number of Lagrangian Hessian evaluations             = 0
Total seconds in IPOPT                               = 0.578

EXIT: Maximum Number of Iterations Exceeded.
